2112
1    1 11
2    1 21
3    1 31
4    1 41
5    1 51
6    1 61
7    1 71
8    1 81
9    1 2
10   1 3
11   1 4
12   1 5
13   1 6
14   1 7
15   1 8
16   1 9
17   1 10
18   1 19
19   1 28
20   1 37
21   1 46
22   1 55
23   1 64
24   1 73
25   2 12
26   2 22
27   2 32
28   2 42
29   2 52
30   2 62
31   2 72
32   2 10
33   2 3
34   2 4
35   2 5
36   2 6
37   2 7
38   2 8
39   2 9
40   2 11
41   2 20
42   2 29
43   2 38
44   2 47
45   2 56
46   2 65
47   2 74
48   2 1
49   3 13
50   3 23
51   3 33
52   3 43
53   3 53
54   3 63
55   3 11
56   3 19
57   3 4
58   3 5
59   3 6
60   3 7
61   3 8
62   3 9
63   3 12
64   3 21
65   3 30
66   3 39
67   3 48
68   3 57
69   3 66
70   3 75
71   3 2
72   3 1
73   4 14
74   4 24
75   4 34
76   4 44
77   4 54
78   4 12
79   4 20
80   4 28
81   4 5
82   4 6
83   4 7
84   4 8
85   4 9
86   4 13
87   4 22
88   4 31
89   4 40
90   4 49
91   4 58
92   4 67
93   4 76
94   4 3
95   4 2
96   4 1
97   5 15
98   5 25
99   5 35
100  5 45
101  5 13
102  5 21
103  5 29
104  5 37
105  5 6
106  5 7
107  5 8
108  5 9
109  5 14
110  5 23
111  5 32
112  5 41
113  5 50
114  5 59
115  5 68
116  5 77
117  5 4
118  5 3
119  5 2
120  5 1
121  6 16
122  6 26
123  6 36
124  6 14
125  6 22
126  6 30
127  6 38
128  6 46
129  6 7
130  6 8
131  6 9
132  6 15
133  6 24
134  6 33
135  6 42
136  6 51
137  6 60
138  6 69
139  6 78
140  6 5
141  6 4
142  6 3
143  6 2
144  6 1
145  7 17
146  7 27
147  7 15
148  7 23
149  7 31
150  7 39
151  7 47
152  7 55
153  7 8
154  7 9
155  7 16
156  7 25
157  7 34
158  7 43
159  7 52
160  7 61
161  7 70
162  7 79
163  7 6
164  7 5
165  7 4
166  7 3
167  7 2
168  7 1
169  8 18
170  8 16
171  8 24
172  8 32
173  8 40
174  8 48
175  8 56
176  8 64
177  8 9
178  8 17
179  8 26
180  8 35
181  8 44
182  8 53
183  8 62
184  8 71
185  8 80
186  8 7
187  8 6
188  8 5
189  8 4
190  8 3
191  8 2
192  8 1
193  9 17
194  9 25
195  9 33
196  9 41
197  9 49
198  9 57
199  9 65
200  9 73
201  9 18
202  9 27
203  9 36
204  9 45
205  9 54
206  9 63
207  9 72
208  9 81
209  9 8
210  9 7
211  9 6
212  9 5
213  9 4
214  9 3
215  9 2
216  9 1
217  10 20
218  10 30
219  10 40
220  10 50
221  10 60
222  10 70
223  10 80
224  10 11
225  10 12
226  10 13
227  10 14
228  10 15
229  10 16
230  10 17
231  10 18
232  10 19
233  10 28
234  10 37
235  10 46
236  10 55
237  10 64
238  10 73
239  10 2
240  10 1
241  11 21
242  11 31
243  11 41
244  11 51
245  11 61
246  11 71
247  11 81
248  11 19
249  11 12
250  11 13
251  11 14
252  11 15
253  11 16
254  11 17
255  11 18
256  11 20
257  11 29
258  11 38
259  11 47
260  11 56
261  11 65
262  11 74
263  11 10
264  11 3
265  11 2
266  11 1
267  12 22
268  12 32
269  12 42
270  12 52
271  12 62
272  12 72
273  12 20
274  12 28
275  12 13
276  12 14
277  12 15
278  12 16
279  12 17
280  12 18
281  12 21
282  12 30
283  12 39
284  12 48
285  12 57
286  12 66
287  12 75
288  12 11
289  12 10
290  12 4
291  12 3
292  12 2
293  13 23
294  13 33
295  13 43
296  13 53
297  13 63
298  13 21
299  13 29
300  13 37
301  13 14
302  13 15
303  13 16
304  13 17
305  13 18
306  13 22
307  13 31
308  13 40
309  13 49
310  13 58
311  13 67
312  13 76
313  13 12
314  13 11
315  13 10
316  13 5
317  13 4
318  13 3
319  14 24
320  14 34
321  14 44
322  14 54
323  14 22
324  14 30
325  14 38
326  14 46
327  14 15
328  14 16
329  14 17
330  14 18
331  14 23
332  14 32
333  14 41
334  14 50
335  14 59
336  14 68
337  14 77
338  14 13
339  14 12
340  14 11
341  14 10
342  14 6
343  14 5
344  14 4
345  15 25
346  15 35
347  15 45
348  15 23
349  15 31
350  15 39
351  15 47
352  15 55
353  15 16
354  15 17
355  15 18
356  15 24
357  15 33
358  15 42
359  15 51
360  15 60
361  15 69
362  15 78
363  15 14
364  15 13
365  15 12
366  15 11
367  15 10
368  15 7
369  15 6
370  15 5
371  16 26
372  16 36
373  16 24
374  16 32
375  16 40
376  16 48
377  16 56
378  16 64
379  16 17
380  16 18
381  16 25
382  16 34
383  16 43
384  16 52
385  16 61
386  16 70
387  16 79
388  16 15
389  16 14
390  16 13
391  16 12
392  16 11
393  16 10
394  16 8
395  16 7
396  16 6
397  17 27
398  17 25
399  17 33
400  17 41
401  17 49
402  17 57
403  17 65
404  17 73
405  17 18
406  17 26
407  17 35
408  17 44
409  17 53
410  17 62
411  17 71
412  17 80
413  17 16
414  17 15
415  17 14
416  17 13
417  17 12
418  17 11
419  17 10
420  17 9
421  17 8
422  17 7
423  18 26
424  18 34
425  18 42
426  18 50
427  18 58
428  18 66
429  18 74
430  18 27
431  18 36
432  18 45
433  18 54
434  18 63
435  18 72
436  18 81
437  18 17
438  18 16
439  18 15
440  18 14
441  18 13
442  18 12
443  18 11
444  18 10
445  18 9
446  18 8
447  19 29
448  19 39
449  19 49
450  19 59
451  19 69
452  19 79
453  19 20
454  19 21
455  19 22
456  19 23
457  19 24
458  19 25
459  19 26
460  19 27
461  19 28
462  19 37
463  19 46
464  19 55
465  19 64
466  19 73
467  19 11
468  19 10
469  19 3
470  19 1
471  20 30
472  20 40
473  20 50
474  20 60
475  20 70
476  20 80
477  20 28
478  20 21
479  20 22
480  20 23
481  20 24
482  20 25
483  20 26
484  20 27
485  20 29
486  20 38
487  20 47
488  20 56
489  20 65
490  20 74
491  20 19
492  20 12
493  20 11
494  20 10
495  20 4
496  20 2
497  21 31
498  21 41
499  21 51
500  21 61
501  21 71
502  21 81
503  21 29
504  21 37
505  21 22
506  21 23
507  21 24
508  21 25
509  21 26
510  21 27
511  21 30
512  21 39
513  21 48
514  21 57
515  21 66
516  21 75
517  21 20
518  21 19
519  21 13
520  21 12
521  21 11
522  21 5
523  21 3
524  21 1
525  22 32
526  22 42
527  22 52
528  22 62
529  22 72
530  22 30
531  22 38
532  22 46
533  22 23
534  22 24
535  22 25
536  22 26
537  22 27
538  22 31
539  22 40
540  22 49
541  22 58
542  22 67
543  22 76
544  22 21
545  22 20
546  22 19
547  22 14
548  22 13
549  22 12
550  22 6
551  22 4
552  22 2
553  23 33
554  23 43
555  23 53
556  23 63
557  23 31
558  23 39
559  23 47
560  23 55
561  23 24
562  23 25
563  23 26
564  23 27
565  23 32
566  23 41
567  23 50
568  23 59
569  23 68
570  23 77
571  23 22
572  23 21
573  23 20
574  23 19
575  23 15
576  23 14
577  23 13
578  23 7
579  23 5
580  23 3
581  24 34
582  24 44
583  24 54
584  24 32
585  24 40
586  24 48
587  24 56
588  24 64
589  24 25
590  24 26
591  24 27
592  24 33
593  24 42
594  24 51
595  24 60
596  24 69
597  24 78
598  24 23
599  24 22
600  24 21
601  24 20
602  24 19
603  24 16
604  24 15
605  24 14
606  24 8
607  24 6
608  24 4
609  25 35
610  25 45
611  25 33
612  25 41
613  25 49
614  25 57
615  25 65
616  25 73
617  25 26
618  25 27
619  25 34
620  25 43
621  25 52
622  25 61
623  25 70
624  25 79
625  25 24
626  25 23
627  25 22
628  25 21
629  25 20
630  25 19
631  25 17
632  25 16
633  25 15
634  25 9
635  25 7
636  25 5
637  26 36
638  26 34
639  26 42
640  26 50
641  26 58
642  26 66
643  26 74
644  26 27
645  26 35
646  26 44
647  26 53
648  26 62
649  26 71
650  26 80
651  26 25
652  26 24
653  26 23
654  26 22
655  26 21
656  26 20
657  26 19
658  26 18
659  26 17
660  26 16
661  26 8
662  26 6
663  27 35
664  27 43
665  27 51
666  27 59
667  27 67
668  27 75
669  27 36
670  27 45
671  27 54
672  27 63
673  27 72
674  27 81
675  27 26
676  27 25
677  27 24
678  27 23
679  27 22
680  27 21
681  27 20
682  27 19
683  27 18
684  27 17
685  27 9
686  27 7
687  28 38
688  28 48
689  28 58
690  28 68
691  28 78
692  28 29
693  28 30
694  28 31
695  28 32
696  28 33
697  28 34
698  28 35
699  28 36
700  28 37
701  28 46
702  28 55
703  28 64
704  28 73
705  28 20
706  28 19
707  28 12
708  28 10
709  28 4
710  28 1
711  29 39
712  29 49
713  29 59
714  29 69
715  29 79
716  29 37
717  29 30
718  29 31
719  29 32
720  29 33
721  29 34
722  29 35
723  29 36
724  29 38
725  29 47
726  29 56
727  29 65
728  29 74
729  29 28
730  29 21
731  29 20
732  29 19
733  29 13
734  29 11
735  29 5
736  29 2
737  30 40
738  30 50
739  30 60
740  30 70
741  30 80
742  30 38
743  30 46
744  30 31
745  30 32
746  30 33
747  30 34
748  30 35
749  30 36
750  30 39
751  30 48
752  30 57
753  30 66
754  30 75
755  30 29
756  30 28
757  30 22
758  30 21
759  30 20
760  30 14
761  30 12
762  30 10
763  30 6
764  30 3
765  31 41
766  31 51
767  31 61
768  31 71
769  31 81
770  31 39
771  31 47
772  31 55
773  31 32
774  31 33
775  31 34
776  31 35
777  31 36
778  31 40
779  31 49
780  31 58
781  31 67
782  31 76
783  31 30
784  31 29
785  31 28
786  31 23
787  31 22
788  31 21
789  31 15
790  31 13
791  31 11
792  31 7
793  31 4
794  31 1
795  32 42
796  32 52
797  32 62
798  32 72
799  32 40
800  32 48
801  32 56
802  32 64
803  32 33
804  32 34
805  32 35
806  32 36
807  32 41
808  32 50
809  32 59
810  32 68
811  32 77
812  32 31
813  32 30
814  32 29
815  32 28
816  32 24
817  32 23
818  32 22
819  32 16
820  32 14
821  32 12
822  32 8
823  32 5
824  32 2
825  33 43
826  33 53
827  33 63
828  33 41
829  33 49
830  33 57
831  33 65
832  33 73
833  33 34
834  33 35
835  33 36
836  33 42
837  33 51
838  33 60
839  33 69
840  33 78
841  33 32
842  33 31
843  33 30
844  33 29
845  33 28
846  33 25
847  33 24
848  33 23
849  33 17
850  33 15
851  33 13
852  33 9
853  33 6
854  33 3
855  34 44
856  34 54
857  34 42
858  34 50
859  34 58
860  34 66
861  34 74
862  34 35
863  34 36
864  34 43
865  34 52
866  34 61
867  34 70
868  34 79
869  34 33
870  34 32
871  34 31
872  34 30
873  34 29
874  34 28
875  34 26
876  34 25
877  34 24
878  34 18
879  34 16
880  34 14
881  34 7
882  34 4
883  35 45
884  35 43
885  35 51
886  35 59
887  35 67
888  35 75
889  35 36
890  35 44
891  35 53
892  35 62
893  35 71
894  35 80
895  35 34
896  35 33
897  35 32
898  35 31
899  35 30
900  35 29
901  35 28
902  35 27
903  35 26
904  35 25
905  35 17
906  35 15
907  35 8
908  35 5
909  36 44
910  36 52
911  36 60
912  36 68
913  36 76
914  36 45
915  36 54
916  36 63
917  36 72
918  36 81
919  36 35
920  36 34
921  36 33
922  36 32
923  36 31
924  36 30
925  36 29
926  36 28
927  36 27
928  36 26
929  36 18
930  36 16
931  36 9
932  36 6
933  37 47
934  37 57
935  37 67
936  37 77
937  37 38
938  37 39
939  37 40
940  37 41
941  37 42
942  37 43
943  37 44
944  37 45
945  37 46
946  37 55
947  37 64
948  37 73
949  37 29
950  37 28
951  37 21
952  37 19
953  37 13
954  37 10
955  37 5
956  37 1
957  38 48
958  38 58
959  38 68
960  38 78
961  38 46
962  38 39
963  38 40
964  38 41
965  38 42
966  38 43
967  38 44
968  38 45
969  38 47
970  38 56
971  38 65
972  38 74
973  38 37
974  38 30
975  38 29
976  38 28
977  38 22
978  38 20
979  38 14
980  38 11
981  38 6
982  38 2
983  39 49
984  39 59
985  39 69
986  39 79
987  39 47
988  39 55
989  39 40
990  39 41
991  39 42
992  39 43
993  39 44
994  39 45
995  39 48
996  39 57
997  39 66
998  39 75
999  39 38
1000 39 37
1001 39 31
1002 39 30
1003 39 29
1004 39 23
1005 39 21
1006 39 19
1007 39 15
1008 39 12
1009 39 7
1010 39 3
1011 40 50
1012 40 60
1013 40 70
1014 40 80
1015 40 48
1016 40 56
1017 40 64
1018 40 41
1019 40 42
1020 40 43
1021 40 44
1022 40 45
1023 40 49
1024 40 58
1025 40 67
1026 40 76
1027 40 39
1028 40 38
1029 40 37
1030 40 32
1031 40 31
1032 40 30
1033 40 24
1034 40 22
1035 40 20
1036 40 16
1037 40 13
1038 40 10
1039 40 8
1040 40 4
1041 41 51
1042 41 61
1043 41 71
1044 41 81
1045 41 49
1046 41 57
1047 41 65
1048 41 73
1049 41 42
1050 41 43
1051 41 44
1052 41 45
1053 41 50
1054 41 59
1055 41 68
1056 41 77
1057 41 40
1058 41 39
1059 41 38
1060 41 37
1061 41 33
1062 41 32
1063 41 31
1064 41 25
1065 41 23
1066 41 21
1067 41 17
1068 41 14
1069 41 11
1070 41 9
1071 41 5
1072 41 1
1073 42 52
1074 42 62
1075 42 72
1076 42 50
1077 42 58
1078 42 66
1079 42 74
1080 42 43
1081 42 44
1082 42 45
1083 42 51
1084 42 60
1085 42 69
1086 42 78
1087 42 41
1088 42 40
1089 42 39
1090 42 38
1091 42 37
1092 42 34
1093 42 33
1094 42 32
1095 42 26
1096 42 24
1097 42 22
1098 42 18
1099 42 15
1100 42 12
1101 42 6
1102 42 2
1103 43 53
1104 43 63
1105 43 51
1106 43 59
1107 43 67
1108 43 75
1109 43 44
1110 43 45
1111 43 52
1112 43 61
1113 43 70
1114 43 79
1115 43 42
1116 43 41
1117 43 40
1118 43 39
1119 43 38
1120 43 37
1121 43 35
1122 43 34
1123 43 33
1124 43 27
1125 43 25
1126 43 23
1127 43 16
1128 43 13
1129 43 7
1130 43 3
1131 44 54
1132 44 52
1133 44 60
1134 44 68
1135 44 76
1136 44 45
1137 44 53
1138 44 62
1139 44 71
1140 44 80
1141 44 43
1142 44 42
1143 44 41
1144 44 40
1145 44 39
1146 44 38
1147 44 37
1148 44 36
1149 44 35
1150 44 34
1151 44 26
1152 44 24
1153 44 17
1154 44 14
1155 44 8
1156 44 4
1157 45 53
1158 45 61
1159 45 69
1160 45 77
1161 45 54
1162 45 63
1163 45 72
1164 45 81
1165 45 44
1166 45 43
1167 45 42
1168 45 41
1169 45 40
1170 45 39
1171 45 38
1172 45 37
1173 45 36
1174 45 35
1175 45 27
1176 45 25
1177 45 18
1178 45 15
1179 45 9
1180 45 5
1181 46 56
1182 46 66
1183 46 76
1184 46 47
1185 46 48
1186 46 49
1187 46 50
1188 46 51
1189 46 52
1190 46 53
1191 46 54
1192 46 55
1193 46 64
1194 46 73
1195 46 38
1196 46 37
1197 46 30
1198 46 28
1199 46 22
1200 46 19
1201 46 14
1202 46 10
1203 46 6
1204 46 1
1205 47 57
1206 47 67
1207 47 77
1208 47 55
1209 47 48
1210 47 49
1211 47 50
1212 47 51
1213 47 52
1214 47 53
1215 47 54
1216 47 56
1217 47 65
1218 47 74
1219 47 46
1220 47 39
1221 47 38
1222 47 37
1223 47 31
1224 47 29
1225 47 23
1226 47 20
1227 47 15
1228 47 11
1229 47 7
1230 47 2
1231 48 58
1232 48 68
1233 48 78
1234 48 56
1235 48 64
1236 48 49
1237 48 50
1238 48 51
1239 48 52
1240 48 53
1241 48 54
1242 48 57
1243 48 66
1244 48 75
1245 48 47
1246 48 46
1247 48 40
1248 48 39
1249 48 38
1250 48 32
1251 48 30
1252 48 28
1253 48 24
1254 48 21
1255 48 16
1256 48 12
1257 48 8
1258 48 3
1259 49 59
1260 49 69
1261 49 79
1262 49 57
1263 49 65
1264 49 73
1265 49 50
1266 49 51
1267 49 52
1268 49 53
1269 49 54
1270 49 58
1271 49 67
1272 49 76
1273 49 48
1274 49 47
1275 49 46
1276 49 41
1277 49 40
1278 49 39
1279 49 33
1280 49 31
1281 49 29
1282 49 25
1283 49 22
1284 49 19
1285 49 17
1286 49 13
1287 49 9
1288 49 4
1289 50 60
1290 50 70
1291 50 80
1292 50 58
1293 50 66
1294 50 74
1295 50 51
1296 50 52
1297 50 53
1298 50 54
1299 50 59
1300 50 68
1301 50 77
1302 50 49
1303 50 48
1304 50 47
1305 50 46
1306 50 42
1307 50 41
1308 50 40
1309 50 34
1310 50 32
1311 50 30
1312 50 26
1313 50 23
1314 50 20
1315 50 18
1316 50 14
1317 50 10
1318 50 5
1319 51 61
1320 51 71
1321 51 81
1322 51 59
1323 51 67
1324 51 75
1325 51 52
1326 51 53
1327 51 54
1328 51 60
1329 51 69
1330 51 78
1331 51 50
1332 51 49
1333 51 48
1334 51 47
1335 51 46
1336 51 43
1337 51 42
1338 51 41
1339 51 35
1340 51 33
1341 51 31
1342 51 27
1343 51 24
1344 51 21
1345 51 15
1346 51 11
1347 51 6
1348 51 1
1349 52 62
1350 52 72
1351 52 60
1352 52 68
1353 52 76
1354 52 53
1355 52 54
1356 52 61
1357 52 70
1358 52 79
1359 52 51
1360 52 50
1361 52 49
1362 52 48
1363 52 47
1364 52 46
1365 52 44
1366 52 43
1367 52 42
1368 52 36
1369 52 34
1370 52 32
1371 52 25
1372 52 22
1373 52 16
1374 52 12
1375 52 7
1376 52 2
1377 53 63
1378 53 61
1379 53 69
1380 53 77
1381 53 54
1382 53 62
1383 53 71
1384 53 80
1385 53 52
1386 53 51
1387 53 50
1388 53 49
1389 53 48
1390 53 47
1391 53 46
1392 53 45
1393 53 44
1394 53 43
1395 53 35
1396 53 33
1397 53 26
1398 53 23
1399 53 17
1400 53 13
1401 53 8
1402 53 3
1403 54 62
1404 54 70
1405 54 78
1406 54 63
1407 54 72
1408 54 81
1409 54 53
1410 54 52
1411 54 51
1412 54 50
1413 54 49
1414 54 48
1415 54 47
1416 54 46
1417 54 45
1418 54 44
1419 54 36
1420 54 34
1421 54 27
1422 54 24
1423 54 18
1424 54 14
1425 54 9
1426 54 4
1427 55 65
1428 55 75
1429 55 56
1430 55 57
1431 55 58
1432 55 59
1433 55 60
1434 55 61
1435 55 62
1436 55 63
1437 55 64
1438 55 73
1439 55 47
1440 55 46
1441 55 39
1442 55 37
1443 55 31
1444 55 28
1445 55 23
1446 55 19
1447 55 15
1448 55 10
1449 55 7
1450 55 1
1451 56 66
1452 56 76
1453 56 64
1454 56 57
1455 56 58
1456 56 59
1457 56 60
1458 56 61
1459 56 62
1460 56 63
1461 56 65
1462 56 74
1463 56 55
1464 56 48
1465 56 47
1466 56 46
1467 56 40
1468 56 38
1469 56 32
1470 56 29
1471 56 24
1472 56 20
1473 56 16
1474 56 11
1475 56 8
1476 56 2
1477 57 67
1478 57 77
1479 57 65
1480 57 73
1481 57 58
1482 57 59
1483 57 60
1484 57 61
1485 57 62
1486 57 63
1487 57 66
1488 57 75
1489 57 56
1490 57 55
1491 57 49
1492 57 48
1493 57 47
1494 57 41
1495 57 39
1496 57 37
1497 57 33
1498 57 30
1499 57 25
1500 57 21
1501 57 17
1502 57 12
1503 57 9
1504 57 3
1505 58 68
1506 58 78
1507 58 66
1508 58 74
1509 58 59
1510 58 60
1511 58 61
1512 58 62
1513 58 63
1514 58 67
1515 58 76
1516 58 57
1517 58 56
1518 58 55
1519 58 50
1520 58 49
1521 58 48
1522 58 42
1523 58 40
1524 58 38
1525 58 34
1526 58 31
1527 58 28
1528 58 26
1529 58 22
1530 58 18
1531 58 13
1532 58 4
1533 59 69
1534 59 79
1535 59 67
1536 59 75
1537 59 60
1538 59 61
1539 59 62
1540 59 63
1541 59 68
1542 59 77
1543 59 58
1544 59 57
1545 59 56
1546 59 55
1547 59 51
1548 59 50
1549 59 49
1550 59 43
1551 59 41
1552 59 39
1553 59 35
1554 59 32
1555 59 29
1556 59 27
1557 59 23
1558 59 19
1559 59 14
1560 59 5
1561 60 70
1562 60 80
1563 60 68
1564 60 76
1565 60 61
1566 60 62
1567 60 63
1568 60 69
1569 60 78
1570 60 59
1571 60 58
1572 60 57
1573 60 56
1574 60 55
1575 60 52
1576 60 51
1577 60 50
1578 60 44
1579 60 42
1580 60 40
1581 60 36
1582 60 33
1583 60 30
1584 60 24
1585 60 20
1586 60 15
1587 60 10
1588 60 6
1589 61 71
1590 61 81
1591 61 69
1592 61 77
1593 61 62
1594 61 63
1595 61 70
1596 61 79
1597 61 60
1598 61 59
1599 61 58
1600 61 57
1601 61 56
1602 61 55
1603 61 53
1604 61 52
1605 61 51
1606 61 45
1607 61 43
1608 61 41
1609 61 34
1610 61 31
1611 61 25
1612 61 21
1613 61 16
1614 61 11
1615 61 7
1616 61 1
1617 62 72
1618 62 70
1619 62 78
1620 62 63
1621 62 71
1622 62 80
1623 62 61
1624 62 60
1625 62 59
1626 62 58
1627 62 57
1628 62 56
1629 62 55
1630 62 54
1631 62 53
1632 62 52
1633 62 44
1634 62 42
1635 62 35
1636 62 32
1637 62 26
1638 62 22
1639 62 17
1640 62 12
1641 62 8
1642 62 2
1643 63 71
1644 63 79
1645 63 72
1646 63 81
1647 63 62
1648 63 61
1649 63 60
1650 63 59
1651 63 58
1652 63 57
1653 63 56
1654 63 55
1655 63 54
1656 63 53
1657 63 45
1658 63 43
1659 63 36
1660 63 33
1661 63 27
1662 63 23
1663 63 18
1664 63 13
1665 63 9
1666 63 3
1667 64 74
1668 64 65
1669 64 66
1670 64 67
1671 64 68
1672 64 69
1673 64 70
1674 64 71
1675 64 72
1676 64 73
1677 64 56
1678 64 55
1679 64 48
1680 64 46
1681 64 40
1682 64 37
1683 64 32
1684 64 28
1685 64 24
1686 64 19
1687 64 16
1688 64 10
1689 64 8
1690 64 1
1691 65 75
1692 65 73
1693 65 66
1694 65 67
1695 65 68
1696 65 69
1697 65 70
1698 65 71
1699 65 72
1700 65 74
1701 65 64
1702 65 57
1703 65 56
1704 65 55
1705 65 49
1706 65 47
1707 65 41
1708 65 38
1709 65 33
1710 65 29
1711 65 25
1712 65 20
1713 65 17
1714 65 11
1715 65 9
1716 65 2
1717 66 76
1718 66 74
1719 66 67
1720 66 68
1721 66 69
1722 66 70
1723 66 71
1724 66 72
1725 66 75
1726 66 65
1727 66 64
1728 66 58
1729 66 57
1730 66 56
1731 66 50
1732 66 48
1733 66 46
1734 66 42
1735 66 39
1736 66 34
1737 66 30
1738 66 26
1739 66 21
1740 66 18
1741 66 12
1742 66 3
1743 67 77
1744 67 75
1745 67 68
1746 67 69
1747 67 70
1748 67 71
1749 67 72
1750 67 76
1751 67 66
1752 67 65
1753 67 64
1754 67 59
1755 67 58
1756 67 57
1757 67 51
1758 67 49
1759 67 47
1760 67 43
1761 67 40
1762 67 37
1763 67 35
1764 67 31
1765 67 27
1766 67 22
1767 67 13
1768 67 4
1769 68 78
1770 68 76
1771 68 69
1772 68 70
1773 68 71
1774 68 72
1775 68 77
1776 68 67
1777 68 66
1778 68 65
1779 68 64
1780 68 60
1781 68 59
1782 68 58
1783 68 52
1784 68 50
1785 68 48
1786 68 44
1787 68 41
1788 68 38
1789 68 36
1790 68 32
1791 68 28
1792 68 23
1793 68 14
1794 68 5
1795 69 79
1796 69 77
1797 69 70
1798 69 71
1799 69 72
1800 69 78
1801 69 68
1802 69 67
1803 69 66
1804 69 65
1805 69 64
1806 69 61
1807 69 60
1808 69 59
1809 69 53
1810 69 51
1811 69 49
1812 69 45
1813 69 42
1814 69 39
1815 69 33
1816 69 29
1817 69 24
1818 69 19
1819 69 15
1820 69 6
1821 70 80
1822 70 78
1823 70 71
1824 70 72
1825 70 79
1826 70 69
1827 70 68
1828 70 67
1829 70 66
1830 70 65
1831 70 64
1832 70 62
1833 70 61
1834 70 60
1835 70 54
1836 70 52
1837 70 50
1838 70 43
1839 70 40
1840 70 34
1841 70 30
1842 70 25
1843 70 20
1844 70 16
1845 70 10
1846 70 7
1847 71 81
1848 71 79
1849 71 72
1850 71 80
1851 71 70
1852 71 69
1853 71 68
1854 71 67
1855 71 66
1856 71 65
1857 71 64
1858 71 63
1859 71 62
1860 71 61
1861 71 53
1862 71 51
1863 71 44
1864 71 41
1865 71 35
1866 71 31
1867 71 26
1868 71 21
1869 71 17
1870 71 11
1871 71 8
1872 71 1
1873 72 80
1874 72 81
1875 72 71
1876 72 70
1877 72 69
1878 72 68
1879 72 67
1880 72 66
1881 72 65
1882 72 64
1883 72 63
1884 72 62
1885 72 54
1886 72 52
1887 72 45
1888 72 42
1889 72 36
1890 72 32
1891 72 27
1892 72 22
1893 72 18
1894 72 12
1895 72 9
1896 72 2
1897 73 74
1898 73 75
1899 73 76
1900 73 77
1901 73 78
1902 73 79
1903 73 80
1904 73 81
1905 73 65
1906 73 64
1907 73 57
1908 73 55
1909 73 49
1910 73 46
1911 73 41
1912 73 37
1913 73 33
1914 73 28
1915 73 25
1916 73 19
1917 73 17
1918 73 10
1919 73 9
1920 73 1
1921 74 75
1922 74 76
1923 74 77
1924 74 78
1925 74 79
1926 74 80
1927 74 81
1928 74 73
1929 74 66
1930 74 65
1931 74 64
1932 74 58
1933 74 56
1934 74 50
1935 74 47
1936 74 42
1937 74 38
1938 74 34
1939 74 29
1940 74 26
1941 74 20
1942 74 18
1943 74 11
1944 74 2
1945 75 76
1946 75 77
1947 75 78
1948 75 79
1949 75 80
1950 75 81
1951 75 74
1952 75 73
1953 75 67
1954 75 66
1955 75 65
1956 75 59
1957 75 57
1958 75 55
1959 75 51
1960 75 48
1961 75 43
1962 75 39
1963 75 35
1964 75 30
1965 75 27
1966 75 21
1967 75 12
1968 75 3
1969 76 77
1970 76 78
1971 76 79
1972 76 80
1973 76 81
1974 76 75
1975 76 74
1976 76 73
1977 76 68
1978 76 67
1979 76 66
1980 76 60
1981 76 58
1982 76 56
1983 76 52
1984 76 49
1985 76 46
1986 76 44
1987 76 40
1988 76 36
1989 76 31
1990 76 22
1991 76 13
1992 76 4
1993 77 78
1994 77 79
1995 77 80
1996 77 81
1997 77 76
1998 77 75
1999 77 74
2000 77 73
2001 77 69
2002 77 68
2003 77 67
2004 77 61
2005 77 59
2006 77 57
2007 77 53
2008 77 50
2009 77 47
2010 77 45
2011 77 41
2012 77 37
2013 77 32
2014 77 23
2015 77 14
2016 77 5
2017 78 79
2018 78 80
2019 78 81
2020 78 77
2021 78 76
2022 78 75
2023 78 74
2024 78 73
2025 78 70
2026 78 69
2027 78 68
2028 78 62
2029 78 60
2030 78 58
2031 78 54
2032 78 51
2033 78 48
2034 78 42
2035 78 38
2036 78 33
2037 78 28
2038 78 24
2039 78 15
2040 78 6
2041 79 80
2042 79 81
2043 79 78
2044 79 77
2045 79 76
2046 79 75
2047 79 74
2048 79 73
2049 79 71
2050 79 70
2051 79 69
2052 79 63
2053 79 61
2054 79 59
2055 79 52
2056 79 49
2057 79 43
2058 79 39
2059 79 34
2060 79 29
2061 79 25
2062 79 19
2063 79 16
2064 79 7
2065 80 81
2066 80 79
2067 80 78
2068 80 77
2069 80 76
2070 80 75
2071 80 74
2072 80 73
2073 80 72
2074 80 71
2075 80 70
2076 80 62
2077 80 60
2078 80 53
2079 80 50
2080 80 44
2081 80 40
2082 80 35
2083 80 30
2084 80 26
2085 80 20
2086 80 17
2087 80 10
2088 80 8
2089 81 80
2090 81 79
2091 81 78
2092 81 77
2093 81 76
2094 81 75
2095 81 74
2096 81 73
2097 81 72
2098 81 71
2099 81 63
2100 81 61
2101 81 54
2102 81 51
2103 81 45
2104 81 41
2105 81 36
2106 81 31
2107 81 27
2108 81 21
2109 81 18
2110 81 11
2111 81 9
2112 81 1